p cnf 62 191
4 3 0
4 -3 0
-5 2 0
-5 4 0
-2 -4 5 0
-7 6 0
-7 -2 0
-6 2 7 0
-8 -5 0
-8 -7 0
5 7 8 0
9 1 0
9 -8 0
-1 8 -9 0
11 -9 0
11 -10 0
9 10 -11 0
-13 -11 0
-13 12 0
11 -12 13 0
-13 14 -15 0
13 -14 -15 0
-13 -14 15 0
13 14 15 0
17 16 0
17 7 0
-16 -7 -17 0
-18 10 -19 0
18 -10 -19 0
-18 -10 19 0
18 10 19 0
21 -20 0
21 -6 0
20 6 -21 0
-22 -19 0
-22 21 0
19 -21 22 0
17 22 -23 0
-17 -22 -23 0
17 -22 23 0
-17 22 23 0
24 -20 0
24 12 0
20 -12 -24 0
-18 -24 -25 0
18 24 -25 0
-18 24 25 0
18 -24 25 0
-26 -18 0
-26 25 0
18 -25 26 0
-27 -23 0
-27 -26 0
23 26 27 0
-15 -27 -28 0
15 27 -28 0
-15 27 28 0
15 -27 28 0
29 -10 0
29 -9 0
10 9 -29 0
-30 9 0
-30 -7 0
-9 7 30 0
29 -30 -31 0
-29 30 -31 0
29 30 31 0
-29 -30 31 0
-33 -32 0
-33 14 0
32 -14 33 0
-34 23 0
-34 23 0
-23 34 0
-33 34 -35 0
33 -34 -35 0
-33 -34 35 0
33 34 35 0
36 -12 0
36 -2 0
12 2 -36 0
35 -36 -37 0
-35 36 -37 0
35 36 37 0
-35 -36 37 0
-24 -38 -39 0
24 38 -39 0
-24 38 39 0
24 -38 39 0
40 18 0
40 39 0
-18 -39 -40 0
41 7 0
41 39 0
-7 -39 -41 0
42 -41 0
42 -41 0
41 -42 0
-43 40 0
-43 -42 0
-40 42 43 0
-44 -37 0
-44 -43 0
37 43 44 0
45 31 0
45 44 0
-31 -44 -45 0
-12 4 -46 0
12 -4 -46 0
-12 -4 46 0
12 4 46 0
-1 -47 0
1 -47 0
47 -26 -48 0
-47 26 -48 0
47 26 48 0
-47 -26 48 0
-17 -49 -50 0
17 49 -50 0
-17 49 50 0
17 -49 50 0
-51 50 0
-51 8 0
-50 -8 51 0
21 -5 -52 0
-21 5 -52 0
21 5 52 0
-21 -5 52 0
53 -51 0
53 52 0
51 -52 -53 0
-48 -53 -54 0
48 53 -54 0
-48 53 54 0
48 -53 54 0
46 -54 -55 0
-46 54 -55 0
46 54 55 0
-46 -54 55 0
-56 45 0
-56 -55 0
-45 55 56 0
-57 -28 0
-57 -56 0
28 56 57 0
-59 -41 0
-59 58 0
41 -58 59 0
60 18 0
60 21 0
-18 -21 -60 0
-61 59 0
-61 -60 0
-59 60 61 0
57 61 -62 0
-57 -61 -62 0
57 -61 62 0
-57 61 62 0
-58 -47 -42 0
51 28 -49 -11 -52 -7 0
-23 11 60 -19 0
33 -40 0
-50 54 -29 25 37 0
-17 44 51 0
-20 -7 0
8 -2 -14 0
27 61 0
50 60 10 -5 -39 0
-4 46 -39 49 17 0
34 15 -10 0
30 -20 -41 31 0
15 -41 31 35 -46 -30 0
54 9 38 -8 56 0
-16 -35 10 -24 0
-26 47 -45 -61 58 -38 0
-32 -57 11 0
-61 62 0
-34 -13 -19 0
-32 -44 2 -54 0
-21 54 -43 -44 0
52 -25 -17 60 -4 -42 0
-39 51 -47 -32 60 0
39 -36 -55 -5 -14 0
11 -50 0
-46 24 -4 -51 44 12 0
-37 -21 -42 0
21 -20 0
42 35 -7 0
-59 -16 0
34 -42 32 39 52 0
62 0
